n = 50;
capacity = 100;
size = [79, 74, 73, 70, 67, 67, 66, 65, 64, 64, 61, 61, 61, 59, 58, 57, 55, 54, 53, 51, 51, 49, 47, 45, 45, 45, 44, 41, 41, 41, 39, 38, 35, 34, 33, 33, 32, 30, 29, 28, 26, 26, 25, 24, 24, 23, 22, 22, 21, 21];
